74
Time limit set to 60 seconds
Running CP solver
/home/omastto1/General-Optimization-Solver/src/solvers/mmrcpsp.py:42(stream:108:6): Warning: Cumulative expression 'pulse': height is zero, expression is zero everywhere.
                                                                                               VarCumulAtom_149 = pulse(task_0_mode_0, 0)
/home/omastto1/General-Optimization-Solver/src/solvers/mmrcpsp.py:42(stream:108:1257): Warning: Cumulative expression 'pulse': height is zero, expression is zero everywhere.
                                                                                                  VarCumulAtom_198 = pulse(task_17_mode_0, 0)
/home/omastto1/General-Optimization-Solver/src/solvers/mmrcpsp.py:42(stream:109:6): Warning: Cumulative expression 'pulse': height is zero, expression is zero everywhere.
                                                                                               VarCumulAtom_202 = pulse(task_0_mode_0, 0)
/home/omastto1/General-Optimization-Solver/src/solvers/mmrcpsp.py:42(stream:109:1254): Warning: Cumulative expression 'pulse': height is zero, expression is zero everywhere.
                                                                                                  VarCumulAtom_251 = pulse(task_17_mode_0, 0)
 ! --------------------------------------------------- CP Optimizer 20.1.0.0 --
 ! Minimization problem - 69 variables, 51 constraints
 ! TimeLimit            = 60
 ! Workers              = 14
 ! LogVerbosity         = Terse
 ! Initial process time : 0.00s (0.00s extraction + 0.00s propagation)
 !  . Log search space  : 160.4 (before), 160.4 (after)
 !  . Memory usage      : 754.6 kB (before), 754.6 kB (after)
 ! Using parallel search with 14 workers.
 ! ----------------------------------------------------------------------------
 !          Best Branches  Non-fixed    W       Branch decision
                        0         69                 -
 + New bound is 25
 ! Using iterative diving.
 ! Using temporal relaxation.
 *            42       43  0.31s        1      (gap is 40.48%)
 *            39      110  0.31s        1      (gap is 35.90%)
 *            38      150  0.31s        1      (gap is 34.21%)
 *            37      190  0.31s        1      (gap is 32.43%)
 *            36      230  0.31s        1      (gap is 30.56%)
 *            34      292  0.31s        1      (gap is 26.47%)
 *            31      366  0.31s        1      (gap is 19.35%)
 *            29      401  0.31s        1      (gap is 13.79%)
 *            28      477  0.31s        1      (gap is 10.71%)
 *            25      585  0.31s        1      (gap is 0.00%)
 ! ----------------------------------------------------------------------------
 ! Search completed, 10 solutions found.
 ! Best objective         : 25 (optimal - effective tol. is 0)
 ! Best bound             : 25
 ! ----------------------------------------------------------------------------
 ! Number of branches     : 60253
 ! Number of fails        : 2418
 ! Total memory usage     : 9.7 MB (9.6 MB CP Optimizer + 0.1 MB Concert)
 ! Time spent in solve    : 0.34s (0.34s engine + 0.00s extraction)
 ! Search speed (br. / s) : 177214.7
 ! ----------------------------------------------------------------------------
task_0: (start=0, end=0, size=0, length=0)
Task 0 is scheduled in mode 0 from 0 to 0
task_1: (start=0, end=5, size=5, length=5)
Task 1 is scheduled in mode 0 from 0 to 5
task_2: (start=0, end=8, size=8, length=8)
Task 2 is scheduled in mode 2 from 0 to 8
task_3: (start=0, end=4, size=4, length=4)
Task 3 is scheduled in mode 2 from 0 to 4
task_4: (start=5, end=8, size=3, length=3)
Task 4 is scheduled in mode 1 from 5 to 8
task_5: (start=5, end=15, size=10, length=10)
Task 5 is scheduled in mode 2 from 5 to 15
task_6: (start=8, end=13, size=5, length=5)
Task 6 is scheduled in mode 1 from 8 to 13
task_7: (start=15, end=23, size=8, length=8)
Task 7 is scheduled in mode 2 from 15 to 23
task_8: (start=5, end=7, size=2, length=2)
Task 8 is scheduled in mode 0 from 5 to 7
task_9: (start=7, end=14, size=7, length=7)
Task 9 is scheduled in mode 2 from 7 to 14
task_10: (start=14, end=18, size=4, length=4)
Task 10 is scheduled in mode 0 from 14 to 18
task_11: (start=18, end=19, size=1, length=1)
Task 11 is scheduled in mode 0 from 18 to 19
task_12: (start=13, end=17, size=4, length=4)
Task 12 is scheduled in mode 0 from 13 to 17
task_13: (start=15, end=23, size=8, length=8)
Task 13 is scheduled in mode 1 from 15 to 23
task_14: (start=19, end=25, size=6, length=6)
Task 14 is scheduled in mode 0 from 19 to 25
task_15: (start=17, end=25, size=8, length=8)
Task 15 is scheduled in mode 2 from 17 to 25
task_16: (start=23, end=25, size=2, length=2)
Task 16 is scheduled in mode 0 from 23 to 25
task_17: (start=25, end=25, size=0, length=0)
Task 17 is scheduled in mode 0 from 25 to 25
Optimal solution found
Objective value: 25
Solution is optimal.
